
Gurobi 9.5.2 (mac64[arm]) logging started Mon May  1 17:37:03 2023

Set parameter LogFile to value "Java/output/special_mip/scenario_seed_1_nJob_40_machineCount_2/mip_increment_5/log.txt"
Gurobi Optimizer version 9.5.2 build v9.5.2rc0 (mac64[arm])
Thread count: 8 physical cores, 8 logical processors, using up to 8 threads
Optimize a model with 708 rows, 10248 columns and 42291 nonzeros
Model fingerprint: 0xe30d10c8
Variable types: 0 continuous, 10248 integer (10248 binary)
Coefficient statistics:
  Matrix range     [1e+00, 2e+02]
  Objective range  [2e+00, 5e+06]
  Bounds range     [1e+00, 1e+00]
  RHS range        [1e+00, 1e+00]
Presolve added 4 rows and 0 columns
Presolve removed 0 rows and 1011 columns
Presolve time: 0.05s
Presolved: 712 rows, 9237 columns, 36665 nonzeros
Variable types: 0 continuous, 9237 integer (9217 binary)

Root relaxation: objective 1.151661e+04, 3728 iterations, 0.14 seconds (0.25 work units)

    Nodes    |    Current Node    |     Objective Bounds      |     Work
 Expl Unexpl |  Obj  Depth IntInf | Incumbent    BestBd   Gap | It/Node Time

     0     0 11516.6118    0  278          - 11516.6118      -     -    0s
     0     0 11545.8970    0  364          - 11545.8970      -     -    0s
     0     0 11549.6179    0  374          - 11549.6179      -     -    0s
     0     0 11549.6349    0  378          - 11549.6349      -     -    0s
     0     0 11549.6349    0  377          - 11549.6349      -     -    0s
     0     0 11607.1972    0  406          - 11607.1972      -     -    0s
     0     0 11625.5481    0  379          - 11625.5481      -     -    0s
     0     0 11627.0689    0  394          - 11627.0689      -     -    0s
     0     0 11627.1637    0  407          - 11627.1637      -     -    0s
     0     0 11627.2023    0  413          - 11627.2023      -     -    0s
     0     0 11627.2023    0  412          - 11627.2023      -     -    0s
     0     0 11633.4940    0  386          - 11633.4940      -     -    0s
     0     0 11634.8804    0  399          - 11634.8804      -     -    0s
     0     0 11635.2039    0  395          - 11635.2039      -     -    0s
     0     0 11635.2302    0  404          - 11635.2302      -     -    0s
     0     0 11649.4875    0  406          - 11649.4875      -     -    1s
     0     0 11651.7424    0  399          - 11651.7424      -     -    1s
     0     0 11651.7891    0  406          - 11651.7891      -     -    1s
     0     0 11660.8387    0  439          - 11660.8387      -     -    1s
     0     0 11662.8082    0  461          - 11662.8082      -     -    1s
     0     0 11663.2210    0  454          - 11663.2210      -     -    1s
     0     0 11663.4440    0  451          - 11663.4440      -     -    1s
     0     0 11663.8934    0  459          - 11663.8934      -     -    1s
     0     0 11663.8934    0  463          - 11663.8934      -     -    1s
     0     0 11674.4221    0  468          - 11674.4221      -     -    1s
     0     0 11675.9465    0  463          - 11675.9465      -     -    1s
     0     0 11675.9648    0  462          - 11675.9648      -     -    1s
     0     0 11686.3398    0  450          - 11686.3398      -     -    1s
     0     0 11688.0386    0  465          - 11688.0386      -     -    1s
     0     0 11688.5096    0  466          - 11688.5096      -     -    1s
     0     0 11688.5096    0  471          - 11688.5096      -     -    1s
     0     0 11692.3887    0  470          - 11692.3887      -     -    1s
     0     0 11693.0028    0  468          - 11693.0028      -     -    1s
     0     0 11693.2983    0  472          - 11693.2983      -     -    1s
     0     0 11693.3033    0  478          - 11693.3033      -     -    1s
     0     0 11694.1543    0  475          - 11694.1543      -     -    1s
     0     0 11695.3524    0  474          - 11695.3524      -     -    1s
     0     0 11695.5974    0  486          - 11695.5974      -     -    1s
     0     0 11695.6154    0  488          - 11695.6154      -     -    1s
     0     0 11698.0843    0  486          - 11698.0843      -     -    2s
     0     0 11699.5052    0  486          - 11699.5052      -     -    2s
     0     0 11699.9015    0  487          - 11699.9015      -     -    2s
     0     0 11700.2538    0  494          - 11700.2538      -     -    2s
     0     0 11700.2538    0  496          - 11700.2538      -     -    2s
     0     0 11702.2539    0  484          - 11702.2539      -     -    2s
     0     0 11702.4003    0  510          - 11702.4003      -     -    2s
     0     0 11703.5880    0  483          - 11703.5880      -     -    2s
H    0     0                    1.837322e+07 11703.5880   100%     -    2s
     0     0 11703.5880    0  466 1.8373e+07 11703.5880   100%     -    2s
H    0     0                    69115.000000 11703.8366  83.1%     -    3s
H    0     0                    38025.000000 11703.8366  69.2%     -    3s
     0     0 11703.8366    0  291 38025.0000 11703.8366  69.2%     -    3s
H    0     0                    37965.000000 11703.8366  69.2%     -    3s
     0     0 11703.8366    0  376 37965.0000 11703.8366  69.2%     -    3s
H    0     0                    37925.000000 11703.8366  69.1%     -    4s
H    0     0                    34405.000000 11703.8366  66.0%     -    4s
H    0     0                    34384.000000 11703.8366  66.0%     -    4s
     0     0 11703.8366    0  427 34384.0000 11703.8366  66.0%     -    4s
     0     0 11703.8366    0  470 34384.0000 11703.8366  66.0%     -    4s
     0     0 11703.8366    0  474 34384.0000 11703.8366  66.0%     -    4s
     0     0 11703.8366    0  470 34384.0000 11703.8366  66.0%     -    4s
     0     0 11703.8366    0  482 34384.0000 11703.8366  66.0%     -    4s
     0     0 11703.8366    0  480 34384.0000 11703.8366  66.0%     -    4s
     0     0 11703.8366    0  473 34384.0000 11703.8366  66.0%     -    4s
H    0     0                    33549.000000 11703.8366  65.1%     -    4s
     0     0 11705.6072    0  485 33549.0000 11705.6072  65.1%     -    4s
H    0     0                    33444.000000 11705.6072  65.0%     -    4s
     0     0 11705.6603    0  486 33444.0000 11705.6603  65.0%     -    4s
     0     0 11706.9684    0  510 33444.0000 11706.9684  65.0%     -    4s
     0     0 11706.9684    0  502 33444.0000 11706.9684  65.0%     -    4s
H    0     0                    33069.000000 11707.0298  64.6%     -    4s
H    0     0                    31719.000000 11707.0298  63.1%     -    4s
     0     2 11707.0298    0  497 31719.0000 11707.0298  63.1%     -    4s
     1     4 11711.3516    1  497 31719.0000 11707.0689  63.1%   635    5s
H   31    40                    31669.000000 11722.2442  63.0%   772    5s
H   32    40                    31627.000000 11722.3403  62.9%   763    5s
H   33    40                    31601.000000 11722.3403  62.9%   774    5s
H   33    40                    12259.000000 11722.3403  4.38%   774    5s
H   35    40                    12184.000000 11722.3403  3.79%   797    5s
H   64    77                    12144.000000 11729.3344  3.41%   821    6s
H   71    77                    12139.000000 11729.3955  3.37%   779    6s
H  101   112                    12114.000000 11729.3955  3.17%   712    6s
H  113   121                    12091.000000 11729.3955  2.99%   704    6s
H  118   121                    11995.000000 11729.3955  2.21%   709    6s
H  134   144                    11970.000000 11729.3955  2.01%   694    6s
H  417   366                    11936.000000 11729.3955  1.73%   461    8s
H  458   408                    11905.000000 11729.3955  1.48%   450    8s
H  542   428                    11902.000000 11730.2780  1.44%   439    9s
H  544   428                    11897.000000 11730.2780  1.40%   439    9s
   587   448     cutoff   12      11897.0000 11730.2780  1.40%   437   10s
H  623   437                    11891.000000 11730.2780  1.35%   434   10s
  1528   822 11889.1368   44  487 11891.0000 11755.0441  1.14%   362   15s
  1791   870 11798.7337   16  445 11891.0000 11775.0085  0.98%   375   20s
H 2507   844                    11867.000000 11800.2951  0.56%   356   23s
  2817   770 11845.5942   24  418 11867.0000 11800.5926  0.56%   351   25s

Cutting planes:
  Gomory: 1
  Cover: 26
  Projected implied bound: 2
  Clique: 78
  MIR: 197
  StrongCG: 55
  Flow cover: 66
  GUB cover: 129
  Inf proof: 7
  Zero half: 58
  RLT: 6
  Relax-and-lift: 3

Explored 4655 nodes (1313348 simplex iterations) in 27.93 seconds (60.83 work units)
Thread count was 8 (of 8 available processors)

Solution count 10: 11867 11891 11897 ... 11995

Optimal solution found (tolerance 1.00e-04)
Best objective 1.186700000000e+04, best bound 1.186700000000e+04, gap 0.0000%
